(set-logic QF_LIA)
(set-info :ran/ran2.smt2)
(set-info :smt-lib-version 2.0)
(declare-fun x1 () Int)
(declare-fun x2 () Int)
(declare-fun x3 () Int)
(declare-fun x4 () Int)
(assert (<= (+ (* 2 x1) (* 3 x2) (* (- 2) x3) (* 6 x4) ) 225))
(assert (<= (+ (* 4 x1) (* 0 x2) (* (- 9) x3) (* (- 10) x4) ) (- 125)))
(assert (<= (+ (* (- 4) x1) (* 4 x2) (* (- 5) x3) (* (- 10) x4) ) 105))
(assert (<= (+ (* (- 5) x1) (* (- 10) x2) (* 10 x3) (* 6 x4) ) (- 144)))
(assert (<= (+ (* 9 x1) (* 0 x2) (* (- 6) x3) (* 1 x4) ) 189))
(assert (<= (+ (* (- 7) x1) (* (- 8) x2) (* 5 x3) (* (- 7) x4) ) 306))
(assert (<= (+ (* 6 x1) (* 3 x2) (* 6 x3) (* (- 7) x4) ) 212))
(assert (<= (+ (* 4 x1) (* 5 x2) (* 7 x3) (* 4 x4) ) (- 34)))
(assert (<= (+ (* 1 x1) (* 0 x2) (* 0 x3) (* 0 x4) ) 446))
(assert (<= (+ (* (- 1) x1) (* 0 x2) (* 0 x3) (* 0 x4) ) 446))
(assert (<= (+ (* 0 x1) (* 1 x2) (* 0 x3) (* 0 x4) ) 446))
(assert (<= (+ (* 0 x1) (* (- 1) x2) (* 0 x3) (* 0 x4) ) 446))
(assert (<= (+ (* 0 x1) (* 0 x2) (* 1 x3) (* 0 x4) ) 446))
(assert (<= (+ (* 0 x1) (* 0 x2) (* (- 1) x3) (* 0 x4) ) 446))
(assert (<= (+ (* 0 x1) (* 0 x2) (* 0 x3) (* 1 x4) ) 446))
(assert (<= (+ (* 0 x1) (* 0 x2) (* 0 x3) (* (- 1) x4) ) 446))
